105766
77,40,51,38,62,3,49,64,30,23,47,18,4,21,43,58,67,52,82,7,27,78,29,34,74,81,10,39,31,73,57,8,20,70,45,53,12,17,36,0,9,28,63,72,44,79,61,69,13,66,75,25,35,65,19,76,16,55,6,26,32,15,37,1,50,71,80,42,59,46,48,33,56,2,11,22,54,41,5,60,14,24,68
